####################################################################### 
# 
# This file contains crystal structure data downloaded from the 
# Cambridge Structural Database (CSD) hosted by the Cambridge 
# Crystallographic Data Centre (CCDC).
# 
# Full information about CCDC data access policies and citation 
# guidelines are available at http://www.ccdc.cam.ac.uk/access/V1 
# 
# Audit and citation data items may have been added by the CCDC. 
# Please retain this information to preserve the provenance of 
# this file and to allow appropriate attribution of the data. 
# 
#######################################################################

data_ACETAC
#This CIF has been generated from an entry in the Cambridge Structural Database
_database_code_depnum_ccdc_archive 'CCDC 1100638'
_database_code_CSD               ACETAC
loop_
_citation_id
_citation_doi
_citation_year
1 10.1107/S0365110X58001341 1958
_audit_creation_method           'Created from the CSD'
_audit_update_record             
;
2024-10-03 downloaded from the CCDC.
;
_database_code_NBS               500330
_chemical_name_common            'DrugBank: DB03166'
_chemical_formula_moiety         'C2 H4 O2'
_chemical_name_systematic        'Acetic acid'
_chemical_absolute_configuration unk
_diffrn_ambient_temperature      278
_exptl_crystal_density_diffrn    1.272
#These two values have been output from a single CSD field.
_refine_ls_R_factor_gt           0.161
_refine_ls_wR_factor_gt          0.161
_diffrn_radiation_probe          x-ray
_symmetry_cell_setting           orthorhombic
_symmetry_space_group_name_H-M   'P n a 21'
_symmetry_Int_Tables_number      33
_space_group_name_Hall           'P 2c -2n'
loop_
_symmetry_equiv_pos_site_id
_symmetry_equiv_pos_as_xyz
1 x,y,z
2 1/2-x,1/2+y,1/2+z
3 1/2+x,1/2-y,z
4 -x,-y,1/2+z
_cell_length_a                   13.32(2)
_cell_length_b                   4.08(1)
_cell_length_c                   5.77(1)
_cell_angle_alpha                90
_cell_angle_beta                 90
_cell_angle_gamma                90
_cell_volume                     313.574
_cell_formula_units_Z            4
loop_
_atom_site_label
_atom_site_type_symbol
_atom_site_fract_x
_atom_site_fract_y
_atom_site_fract_z
O1 O 0.12950 0.10300 0.00000
O2 O 0.25260 0.36900 0.17800
C1 C 0.16410 0.27600 0.17000
C2 C 0.08680 0.37200 0.35700

#END
